Problem:    upd
Rows:       104
Columns:    15
Non-zeros:  1118
Status:     OPTIMAL
Objective:  0 (MINimum)

   No.   Row name   St   Activity     Lower bound   Upper bound    Marginal
------ ------------ -- ------------- ------------- ------------- -------------
     1 cond_0_2     NU       1.09861                     1.09861         < eps
     2 cond_0_3     B         1.3782                     1.60944 
     3 cond_0_4     B        1.57665                     2.07944 
     4 cond_0_5     B        1.94946                     2.48491 
     5 cond_0_6     B        2.07505             0       2.83321 
     6 cond_0_7     B          2.085      0.693147       3.13549 
     7 cond_0_8     B        2.09899       1.09861        3.4012 
     8 cond_0_9     B        2.12639       1.38629       3.63759 
     9 cond_0_10    B        2.16613       1.60944       3.85015 
    10 cond_0_11    B        2.21285       1.79176       4.04305 
    11 cond_0_12    B         2.2228       1.94591       4.21951 
    12 cond_0_13    B        2.23275       2.07944       4.38203 
    13 cond_0_14    B        2.32806       2.19722        4.5326 
    14 cond_1_2     B        1.86159                     2.77259 
    15 cond_1_3     B        2.14118                     2.83321 
    16 cond_1_4     B        2.33963      0.693147       2.94444 
    17 cond_1_5     B        2.71244       1.38629       3.09104 
    18 cond_1_6     B        2.83803       1.79176        3.2581 
    19 cond_1_7     B        2.84798       2.07944       3.43399 
    20 cond_1_8     B        2.86197       2.30259       3.61092 
    21 cond_1_9     B        2.88937       2.48491       3.78419 
    22 cond_1_10    B        2.92911       2.63906       3.95124 
    23 cond_1_11    B        2.97583       2.77259       4.11087 
    24 cond_1_12    B        2.98578       2.89037       4.26268 
    25 cond_1_13    NL       2.99573       2.99573       4.40672         < eps
    26 cond_1_14    NL       3.09104       3.09104       4.54329         < eps
    27 cond_2_3     B        2.57943             0        3.3673 
    28 cond_2_4     B        2.77788       1.38629        3.4012 
    29 cond_2_5     B        3.15069       1.94591       3.46574 
    30 cond_2_6     B        3.27629       2.30259       3.55535 
    31 cond_2_7     B        3.28624       2.56495       3.66356 
    32 cond_2_8     B        3.30022       2.77259       3.78419 
    33 cond_2_9     B        3.32762       2.94444       3.91202 
    34 cond_2_10    B        3.36736       3.09104       4.04305 
    35 cond_2_11    B        3.41409       3.21888       4.17439 
    36 cond_2_12    B        3.42404        3.3322       4.30407 
    37 cond_2_13    NL       3.43399       3.43399       4.43082         < eps
    38 cond_2_14    B         3.5293       3.52636       4.55388 
    39 cond_3_4     B        3.05747       1.60944       3.71357 
    40 cond_3_5     B        3.43028       2.19722       3.73767 
    41 cond_3_6     B        3.55587       2.56495       3.78419 
    42 cond_3_7     B        3.56582       2.83321       3.85015 
    43 cond_3_8     B        3.57981       3.04452       3.93183 
    44 cond_3_9     B        3.60721       3.21888       4.02535 
    45 cond_3_10    B        3.64695        3.3673       4.12713 
    46 cond_3_11    B        3.69367       3.49651       4.23411 
    47 cond_3_12    B        3.70362       3.61092       4.34381 
    48 cond_3_13    NL       3.71357       3.71357       4.45435         < eps
    49 cond_3_14    B        3.80888       3.80666       4.56435 
    50 cond_4_5     B        3.62873       2.30259       3.95124 
    51 cond_4_6     B        3.75432       2.70805       3.97029 
    52 cond_4_7     B        3.76427       2.99573       4.00733 
    53 cond_4_8     B        3.77826       3.21888       4.06044 
    54 cond_4_9     B        3.80566        3.4012       4.12713 
    55 cond_4_10    B         3.8454       3.55535       4.20469 
    56 cond_4_11    B        3.89212       3.68888       4.29046 
    57 cond_4_12    B        3.90207       3.80666       4.38203 
    58 cond_4_13    B        3.91202       3.91202       4.47734 
    59 cond_4_14    NL       4.00733       4.00733       4.57471         < eps
    60 cond_5_6     NU       4.12713       2.77259       4.12713         < eps
    61 cond_5_7     B        4.13708       3.09104       4.14313 
    62 cond_5_8     B        4.15107        3.3322       4.17439 
    63 cond_5_9     B        4.17847       3.52636       4.21951 
    64 cond_5_10    B        4.21821       3.68888       4.27667 
    65 cond_5_11    B        4.26493       3.82864       4.34381 
    66 cond_5_12    B        4.27488       3.95124       4.41884 
    67 cond_5_13    B        4.28483       4.06044       4.49981 
    68 cond_5_14    B        4.38014       4.15888       4.58497 
    69 cond_6_7     NU       4.26268       3.13549       4.26268         < eps
    70 cond_6_8     NU       4.27667        3.4012       4.27667         < eps
    71 cond_6_9     NU       4.30407       3.61092       4.30407         < eps
    72 cond_6_10    NU       4.34381       3.78419       4.34381         < eps
    73 cond_6_11    B        4.39053       3.93183       4.39445 
    74 cond_6_12    B        4.40048       4.06044       4.45435 
    75 cond_6_13    B        4.41043       4.17439       4.52179 
    76 cond_6_14    B        4.50574       4.27667       4.59512 
    77 cond_7_8     B        4.28662       3.43399       4.36945 
    78 cond_7_9     B        4.31402       3.66356       4.38203 
    79 cond_7_10    B        4.35376       3.85015       4.40672 
    80 cond_7_11    B        4.40048       4.00733       4.44265 
    81 cond_7_12    B        4.41043       4.14313       4.48864 
    82 cond_7_13    B        4.42038       4.26268       4.54329 
    83 cond_7_14    B        4.51569       4.36945       4.60517 
    84 cond_8_9     B          4.328       3.68888       4.45435 
    85 cond_8_10    B        4.36774       3.89182       4.46591 
    86 cond_8_11    B        4.41447       4.06044       4.48864 
    87 cond_8_12    B        4.42442       4.20469       4.52179 
    88 cond_8_13    B        4.43437       4.33073       4.56435 
    89 cond_8_14    B        4.52968       4.44265       4.61512 
    90 cond_9_10    B        4.39514       3.91202       4.52179 
    91 cond_9_11    B        4.44186       4.09434        4.5326 
    92 cond_9_12    B        4.45181        4.2485       4.55388 
    93 cond_9_13    B        4.46176       4.38203       4.58497 
    94 cond_9_14    B        4.55707       4.49981       4.62497 
    95 cond_10_11   B         4.4816       4.11087       4.57471 
    96 cond_10_12   B        4.49155       4.27667       4.58497 
    97 cond_10_13   B        4.50151       4.41884       4.60517 
    98 cond_10_14   B        4.59682       4.54329       4.63473 
    99 cond_11_12   B        4.53828       4.29046       4.61512 
   100 cond_11_13   B        4.54823       4.44265       4.62497 
   101 cond_11_14   B        4.64354       4.57471       4.64439 
   102 cond_12_13   B        4.55818       4.45435       4.64439 
   103 cond_12_14   B        4.65349       4.59512       4.65396 
   104 cond_13_14   NU       4.66344       4.60517       4.66344         < eps

   No. Column name  St   Activity     Lower bound   Upper bound    Marginal
------ ------------ -- ------------- ------------- ------------- -------------
     1 a0           B     -0.0513105                             
     2 a1           B       0.762978    0.00995033               
     3 a2           B       0.438255    0.00995033               
     4 a3           B       0.279585    0.00995033               
     5 a4           B       0.198451    0.00995033               
     6 a5           B       0.372811    0.00995033               
     7 a6           B       0.125595    0.00995033               
     8 a7           NL    0.00995033    0.00995033                       < eps
     9 a8           B      0.0139862    0.00995033               
    10 a9           B       0.027399    0.00995033               
    11 a10          B      0.0397403    0.00995033               
    12 a11          B      0.0467231    0.00995033               
    13 a12          NL    0.00995033    0.00995033                       < eps
    14 a13          NL    0.00995033    0.00995033                       < eps
    15 a14          B      0.0953102    0.00995033               

Karush-Kuhn-Tucker optimality conditions:

KKT.PE: max.abs.err = 3.55e-15 on row 104
        max.rel.err = 3.37e-16 on row 104
        High quality

KKT.PB: max.abs.err = 0.00e+00 on row 0
        max.rel.err = 0.00e+00 on row 0
        High quality

KKT.DE: max.abs.err = 0.00e+00 on column 0
        max.rel.err = 0.00e+00 on column 0
        High quality

KKT.DB: max.abs.err = 0.00e+00 on row 0
        max.rel.err = 0.00e+00 on row 0
        High quality

End of output
